100
128
1
20
35
15
13
10
20
1
14
6
7
5
7
17
11
5
4
45
14
4
8
6
6
5
3
4
3
1
19
14
14
3
2
12
11
33
25
49
31
22
10
3
2
8
2
6
4
10
2
1
2
26
34
55
3
1
2
23
61
5
25
41
1
9
36
57
5
41
49
64
45
41
40
18
56
41
42
51
57
4
59
52
5
13
26
20
38
55
53
1
55
4
52
20
64
1
64
21
35
30